p tdp 88 87
55 1
58 15
34 21
17 70
37 18
21 38
44 54
24 47
13 23
7 6
81 28
37 42
69 61
64 51
85 14
51 30
67 23
26 76
55 48
80 53
84 43
82 47
56 14
83 43
33 1
31 57
7 8
20 47
63 15
32 49
77 27
88 19
88 18
68 61
44 17
73 65
73 5
31 20
8 66
46 74
65 21
29 45
75 26
74 4
29 22
52 12
77 44
79 61
22 13
71 80
36 60
50 12
9 38
87 8
78 11
23 62
33 59
16 77
68 87
42 49
60 74
2 59
39 86
49 76
71 29
7 41
85 28
10 51
3 2
35 46
86 43
15 25
36 72
35 78
37 39
40 49
63 77
49 3
70 85
38 30
77 50
47 74
8 21
42 70
47 18
53 10
34 76
